100 80 5
0 1 0
1 2 0
2 3 0
3 4 0
5 6 1
6 7 1
7 8 1
8 9 1
10 11 2
11 12 2
12 13 2
13 14 2
15 16 3
16 17 3
17 18 3
18 19 3
20 21 4
21 22 4
22 23 4
23 24 4
25 26 5
26 27 5
27 28 5
28 29 5
30 31 6
31 32 6
32 33 6
33 34 6
35 36 7
36 37 7
37 38 7
38 39 7
40 41 8
41 42 8
42 43 8
43 44 8
45 46 9
46 47 9
47 48 9
48 49 9
50 51 10
51 52 10
52 53 10
53 54 10
55 56 11
56 57 11
57 58 11
58 59 11
60 61 12
61 62 12
62 63 12
63 64 12
65 66 13
66 67 13
67 68 13
68 69 13
70 71 14
71 72 14
72 73 14
73 74 14
75 76 15
76 77 15
77 78 15
78 79 15
80 81 16
81 82 16
82 83 16
83 84 16
85 86 17
86 87 17
87 88 17
88 89 17
90 91 18
91 92 18
92 93 18
93 94 18
95 96 19
96 97 19
97 98 19
98 99 19
1 3 5
1 4 58
1 2 44
1 0 9
2 1 58 2 58
1 1 89
1 4 96
1 0 97
1 2 84
1 3 77
1 2 81
1 3 85
2 1 87 0 87
1 4 39
1 0 77
1 0 15
2 3 57 0 57
1 4 73
1 1 21
1 2 31
1 2 48
2 4 71 2 71
1 3 70
1 0 40
1 1 49
1 0 10
1 4 82
2 3 34 4 34
1 2 80
1 1 22
2 2 17 1 17
1 0 55
1 1 91
1 4 75
1 3 7
1 3 47
1 2 62
1 1 72
1 4 35
1 0 11
1 1 90
2 2 94 0 94
1 4 50
1 0 64
2 3 75 2 75
1 3 15
1 2 67
2 0 12 3 12
1 4 20
2 1 71 2 71
1 4 93
1 2 29
1 0 52
1 1 57
1 3 68
1 3 77
1 1 93
1 0 58
1 2 70
1 4 7
1 1 63
1 3 27
1 0 95
1 4 6
1 2 82
1 4 36
1 0 26
1 3 48
1 2 56
1 1 87
2 2 36 4 36
1 1 8
1 4 15
1 3 76
1 0 36
1 4 78
1 1 84
1 3 41
1 0 30
2 2 76 4 76
1 1 78
1 0 75
1 4 88
1 3 13
1 2 81
1 0 54
1 4 40
1 2 13
1 1 82
1 3 29
2 1 26 4 26
1 4 82
1 0 52
1 3 6
1 2 6
1 3 54
1 1 64
1 0 54
1 2 32
1 4 88